============================[ Problem Statistics ]=============================|                                                                             ||  Number of variables:          4242                                         ||  Number of clauses:           10351                                         ||  Parse time:                   0.73 s                                       ||                                                                             |============================[ Search Statistics ]==============================| Conflicts |          ORIGINAL         |          LEARNT          | Progress ||           |    Vars  Clauses Literals |    Limit  Clauses Lit/Cl |          |===============================================================================|       100 |    1591     6556  1177997 |     2403      100     53 | 62.501 % ||       250 |    1591     6556  1177997 |     2644      250     75 | 62.495 % |===============================================================================restarts              : 3conflicts             : 400            (360 /sec)decisions             : 664            (0.00 % random) (597 /sec)propagations          : 12056          (10842 /sec)conflict literals     : 33183          (94.55 % deleted)CPU time              : 1.112 sSATISFIABLE